/*********************************************
 * OPL 12.6.0.0 Data
 * Author: Adrian Rodriguez Bazaga, Pau Rodriguez Esmerats
 * Creation Date: 06/12/2017 at 23:02:56
 *********************************************/

nNurses=150;
maxConsec=2;
maxPresence=7;
maxHours=5;
minHours=1;
hours=24;
demand= [22 22 33 33 22 33 33 22 22 13 1 5 1 6 3 6 3 4 2 1 28 42 16 37  ];
